(set-logic BV) (define-fun origCir ((i_13 Bool) (i_16 Bool) (i_15 Bool) (i_14 Bool)) Bool (and (and i_14 i_13) (and (and i_16 i_15) (and i_15 i_14)))) (synth-fun skel ((i_13 Bool) (i_16 Bool) (i_15 Bool) (i_14 Bool)) Bool) (declare-var i_13 Bool) (declare-var i_16 Bool) (declare-var i_15 Bool) (declare-var i_14 Bool) (constraint (= (origCir i_13 i_16 i_15 i_14) (skel i_13 i_16 i_15 i_14))) (check-synth)
